NAME          ClpDefau
ROWS
 N  OBJROW
 L  R_160_0
 L  R_160_1
 L  R_160_2
 L  R_160_3
 L  R_160_4
 L  R_160_5
 L  R_160_6
 L  R_160_7
 L  R_160_8
 L  R_160_9
 L  R_160_10
 L  R_160_11
 L  R_160_12
 L  R_160_13
 L  R_160_14
 L  R_160_15
COLUMNS
    x_0       OBJROW     -1.           R_160_0   1.          
    x_0       R_160_1   3.             R_160_3   9.          
    x_0       R_160_5   8.             R_160_6   1.          
    x_0       R_160_8   6.             R_160_10  9.          
    x_0       R_160_11  3.             R_160_12  1.          
    x_0       R_160_13  3.             R_160_14  9.          
    x_0       R_160_15  9.          
    x_1       OBJROW     -2.           R_160_0   3.          
    x_1       R_160_2   7.             R_160_3   6.          
    x_1       R_160_4   6.             R_160_5   8.          
    x_1       R_160_6   7.             R_160_7   8.          
    x_1       R_160_8   4.             R_160_9   8.          
    x_1       R_160_10  6.             R_160_11  8.          
    x_1       R_160_13  10.            R_160_14  9.          
    x_1       R_160_15  8.          
    x_2       OBJROW     -2.           R_160_0   6.          
    x_2       R_160_4   8.             R_160_5   9.          
    x_2       R_160_6   9.             R_160_7   10.         
    x_2       R_160_8   4.             R_160_9   6.          
    x_2       R_160_11  2.             R_160_12  6.          
    x_2       R_160_13  4.             R_160_15  10.         
    x_3       OBJROW     -6.           R_160_0   5.          
    x_3       R_160_1   2.             R_160_2   3.          
    x_3       R_160_4   4.             R_160_6   1.          
    x_3       R_160_7   6.             R_160_8   1.          
    x_3       R_160_9   2.             R_160_10  1.          
    x_3       R_160_11  3.             R_160_13  3.          
    x_3       R_160_14  1.             R_160_15  1.          
    x_4       OBJROW     -3.           R_160_0   4.          
    x_4       R_160_1   1.             R_160_2   10.         
    x_4       R_160_3   2.             R_160_4   8.          
    x_4       R_160_5   8.             R_160_6   10.         
    x_4       R_160_7   5.             R_160_8   10.         
    x_4       R_160_9   8.             R_160_11  6.          
    x_4       R_160_13  3.             R_160_14  7.          
    x_4       R_160_15  6.          
    x_5       OBJROW     -5.           R_160_0   6.          
    x_5       R_160_1   10.            R_160_3   9.          
    x_5       R_160_5   5.             R_160_6   3.          
    x_5       R_160_7   8.             R_160_8   9.          
    x_5       R_160_10  1.             R_160_12  8.          
    x_5       R_160_13  2.             R_160_14  10.         
    x_5       R_160_15  10.         
    x_6       OBJROW     -5.           R_160_0   5.          
    x_6       R_160_1   5.             R_160_2   1.          
    x_6       R_160_3   7.             R_160_4   2.          
    x_6       R_160_5   2.             R_160_6   2.          
    x_6       R_160_7   4.             R_160_8   1.          
    x_6       R_160_9   8.             R_160_10  9.          
    x_6       R_160_11  4.             R_160_12  4.          
    x_6       R_160_13  7.             R_160_14  1.          
    x_6       R_160_15  1.          
    x_7       OBJROW     -10.          R_160_2   2.          
    x_7       R_160_3   8.             R_160_4   9.          
    x_7       R_160_6   6.             R_160_7   6.          
    x_7       R_160_8   7.             R_160_9   5.          
    x_7       R_160_10  1.             R_160_12  8.          
    x_7       R_160_13  10.            R_160_14  1.          
    x_7       R_160_15  6.          
RHS
    RHS       R_160_0   27.            R_160_1   12.         
    RHS       R_160_2   22.            R_160_3   39.         
    RHS       R_160_4   20.            R_160_5   15.         
    RHS       R_160_6   31.            R_160_7   33.         
    RHS       R_160_8   37.            R_160_9   16.         
    RHS       R_160_10  30.            R_160_11  33.         
    RHS       R_160_12  15.            R_160_13  24.         
    RHS       R_160_14  15.            R_160_15  15.         
BOUNDS
 UI BOUND     x_0       10.         
 UI BOUND     x_1       10.         
 UI BOUND     x_2       10.         
 UI BOUND     x_3       10.         
 UI BOUND     x_4       10.         
 UI BOUND     x_5       10.         
 UI BOUND     x_6       10.         
 UI BOUND     x_7       10.         
ENDATA
